NAME : LPS-n19-m201
COMMENT : (Lartu-Peter-Santi Plot, instance 6601 out of 39200. 19 customers.)
TYPE : CVRP
DIMENSION : 19
EDGE_WEIGHT_TYPE : EUC_2D
CAPACITY : 130
NODE_COORD_SECTION
 1 8 38
 2 63 10
 3 20 83
 4 37 13
 5 1 18
 6 33 70
 7 73 42
 8 37 100
 9 68 10
 10 43 60
 11 23 25
 12 93 12
 13 54 34
 14 1 8
 15 65 91
 16 60 91
 17 45 98
 18 74 5
 19 68 94
DEMAND_SECTION
1 0
2 45
3 2
4 129
5 71
6 90
7 39
8 59
9 84
10 46
11 80
12 62
13 40
14 88
15 113
16 39
17 41
18 114
19 51
DEPOT_SECTION
 1
 -1
EOF
